10J3M/DAT/10J3MNLR-10.dat
10 3
18.7284 10.8594
29.7144 43.3184
33.1011 39.4209
29.5737 5.2153
22.953 39.2685
25.4061 17.5735
29.8027 12.5441
16.9044 2.7099
20.6057 3.0328
25.6444 31.245
68.3959