10J3M/SOL/10J3MNLR-10.sol
solution status: optimal solution found
objective value:                     74.2860666666666
x#1#1                                0.17777969597988 	(obj:0)
x#1#2                              0.0357345651144044 	(obj:0)
x#1#3                               0.786485738905715 	(obj:0)
x#2#3                                               1 	(obj:0)
x#3#2                                               1 	(obj:0)
x#4#2                                 0.8489230046858 	(obj:0)
x#4#3                                 0.1510769953142 	(obj:0)
x#5#1                                               1 	(obj:0)
x#6#2                                               1 	(obj:0)
x#7#1                                               1 	(obj:0)
x#8#3                                               1 	(obj:0)
x#9#1                                               1 	(obj:0)
x#10#1                              0.532218957769741 	(obj:0)
x#10#2                              0.467781042230259 	(obj:0)
z                                    74.2860666666666 	(obj:1)
